NAME           p2m2p1m1p0n100
ROWS
 G  R0001
 N  R0002
COLUMNS
    INT1      'MARKER'                 'INTORG'
    C0001     R0001     6567
    C0001     R0002     6567
    C0002     R0001     6563
    C0002     R0002     6563
    C0003     R0001     14353
    C0003     R0002     14353
    C0004     R0001     11135
    C0004     R0002     11135
    C0005     R0001     6562
    C0005     R0002     6562
    C0006     R0001     9785
    C0006     R0002     9785
    C0007     R0001     8174
    C0007     R0002     8174
    C0008     R0001     6563
    C0008     R0002     6563
    C0009     R0001     12741
    C0009     R0002     12741
    C0010     R0001     8176
    C0010     R0002     8176
    C0011     R0001     12740
    C0011     R0002     12740
    C0012     R0001     11136
    C0012     R0002     11136
    C0013     R0001     12744
    C0013     R0002     12744
    C0014     R0001     8176
    C0014     R0002     8176
    C0015     R0001     9783
    C0015     R0002     9783
    C0016     R0001     12742
    C0016     R0002     12742
    C0017     R0001     11135
    C0017     R0002     11135
    C0018     R0001     12745
    C0018     R0002     12745
    C0019     R0001     14352
    C0019     R0002     14352
    C0020     R0001     9782
    C0020     R0002     9782
    C0021     R0001     6565
    C0021     R0002     6565
    C0022     R0001     11136
    C0022     R0002     11136
    C0023     R0001     6563
    C0023     R0002     6563
    C0024     R0001     12743
    C0024     R0002     12743
    C0025     R0001     14350
    C0025     R0002     14350
    C0026     R0001     11134
    C0026     R0002     11134
    C0027     R0001     8176
    C0027     R0002     8176
    C0028     R0001     12740
    C0028     R0002     12740
    C0029     R0001     6563
    C0029     R0002     6563
    C0030     R0001     9782
    C0030     R0002     9782
    C0031     R0001     12743
    C0031     R0002     12743
    C0032     R0001     14352
    C0032     R0002     14352
    C0033     R0001     12741
    C0033     R0002     12741
    C0034     R0001     6566
    C0034     R0002     6566
    C0035     R0001     12743
    C0035     R0002     12743
    C0036     R0001     6564
    C0036     R0002     6564
    C0037     R0001     9785
    C0037     R0002     9785
    C0038     R0001     9782
    C0038     R0002     9782
    C0039     R0001     12741
    C0039     R0002     12741
    C0040     R0001     9782
    C0040     R0002     9782
    C0041     R0001     14350
    C0041     R0002     14350
    C0042     R0001     11133
    C0042     R0002     11133
    C0043     R0001     6562
    C0043     R0002     6562
    C0044     R0001     11135
    C0044     R0002     11135
    C0045     R0001     8176
    C0045     R0002     8176
    C0046     R0001     9781
    C0046     R0002     9781
    C0047     R0001     6562
    C0047     R0002     6562
    C0048     R0001     11135
    C0048     R0002     11135
    C0049     R0001     8175
    C0049     R0002     8175
    C0050     R0001     12745
    C0050     R0002     12745
    C0051     R0001     11133
    C0051     R0002     11133
    C0052     R0001     6566
    C0052     R0002     6566
    C0053     R0001     11135
    C0053     R0002     11135
    C0054     R0001     11132
    C0054     R0002     11132
    C0055     R0001     12743
    C0055     R0002     12743
    C0056     R0001     12743
    C0056     R0002     12743
    C0057     R0001     14349
    C0057     R0002     14349
    C0058     R0001     9784
    C0058     R0002     9784
    C0059     R0001     12740
    C0059     R0002     12740
    C0060     R0001     9783
    C0060     R0002     9783
    C0061     R0001     8174
    C0061     R0002     8174
    C0062     R0001     9785
    C0062     R0002     9785
    C0063     R0001     6567
    C0063     R0002     6567
    C0064     R0001     8176
    C0064     R0002     8176
    C0065     R0001     8175
    C0065     R0002     8175
    C0066     R0001     8174
    C0066     R0002     8174
    C0067     R0001     8174
    C0067     R0002     8174
    C0068     R0001     6564
    C0068     R0002     6564
    C0069     R0001     11135
    C0069     R0002     11135
    C0070     R0001     6564
    C0070     R0002     6564
    C0071     R0001     9781
    C0071     R0002     9781
    C0072     R0001     6565
    C0072     R0002     6565
    C0073     R0001     12740
    C0073     R0002     12740
    C0074     R0001     14353
    C0074     R0002     14353
    C0075     R0001     8176
    C0075     R0002     8176
    C0076     R0001     11132
    C0076     R0002     11132
    C0077     R0001     14350
    C0077     R0002     14350
    C0078     R0001     8172
    C0078     R0002     8172
    C0079     R0001     14353
    C0079     R0002     14353
    C0080     R0001     8175
    C0080     R0002     8175
    C0081     R0001     8171
    C0081     R0002     8171
    C0082     R0001     14353
    C0082     R0002     14353
    C0083     R0001     9783
    C0083     R0002     9783
    C0084     R0001     8175
    C0084     R0002     8175
    C0085     R0001     6567
    C0085     R0002     6567
    C0086     R0001     8173
    C0086     R0002     8173
    C0087     R0001     9783
    C0087     R0002     9783
    C0088     R0001     6564
    C0088     R0002     6564
    C0089     R0001     9781
    C0089     R0002     9781
    C0090     R0001     12742
    C0090     R0002     12742
    C0091     R0001     14353
    C0091     R0002     14353
    C0092     R0001     11133
    C0092     R0002     11133
    C0093     R0001     9783
    C0093     R0002     9783
    C0094     R0001     11132
    C0094     R0002     11132
    C0095     R0001     12743
    C0095     R0002     12743
    C0096     R0001     12743
    C0096     R0002     12743
    C0097     R0001     12740
    C0097     R0002     12740
    C0098     R0001     9782
    C0098     R0002     9782
    C0099     R0001     9782
    C0099     R0002     9782
    C0100     R0001     14354
    C0100     R0002     14354
    INT1END   'MARKER'                 'INTEND'
RHS
    B         R0001     80424
RANGES
    RANGE     R0001     1
BOUNDS
 UP BOUND     C0001     1
 UP BOUND     C0002     1
 UP BOUND     C0003     1
 UP BOUND     C0004     1
 UP BOUND     C0005     1
 UP BOUND     C0006     1
 UP BOUND     C0007     1
 UP BOUND     C0008     1
 UP BOUND     C0009     1
 UP BOUND     C0010     1
 UP BOUND     C0011     1
 UP BOUND     C0012     1
 UP BOUND     C0013     1
 UP BOUND     C0014     1
 UP BOUND     C0015     1
 UP BOUND     C0016     1
 UP BOUND     C0017     1
 UP BOUND     C0018     1
 UP BOUND     C0019     1
 UP BOUND     C0020     1
 UP BOUND     C0021     1
 UP BOUND     C0022     1
 UP BOUND     C0023     1
 UP BOUND     C0024     1
 UP BOUND     C0025     1
 UP BOUND     C0026     1
 UP BOUND     C0027     1
 UP BOUND     C0028     1
 UP BOUND     C0029     1
 UP BOUND     C0030     1
 UP BOUND     C0031     1
 UP BOUND     C0032     1
 UP BOUND     C0033     1
 UP BOUND     C0034     1
 UP BOUND     C0035     1
 UP BOUND     C0036     1
 UP BOUND     C0037     1
 UP BOUND     C0038     1
 UP BOUND     C0039     1
 UP BOUND     C0040     1
 UP BOUND     C0041     1
 UP BOUND     C0042     1
 UP BOUND     C0043     1
 UP BOUND     C0044     1
 UP BOUND     C0045     1
 UP BOUND     C0046     1
 UP BOUND     C0047     1
 UP BOUND     C0048     1
 UP BOUND     C0049     1
 UP BOUND     C0050     1
 UP BOUND     C0051     1
 UP BOUND     C0052     1
 UP BOUND     C0053     1
 UP BOUND     C0054     1
 UP BOUND     C0055     1
 UP BOUND     C0056     1
 UP BOUND     C0057     1
 UP BOUND     C0058     1
 UP BOUND     C0059     1
 UP BOUND     C0060     1
 UP BOUND     C0061     1
 UP BOUND     C0062     1
 UP BOUND     C0063     1
 UP BOUND     C0064     1
 UP BOUND     C0065     1
 UP BOUND     C0066     1
 UP BOUND     C0067     1
 UP BOUND     C0068     1
 UP BOUND     C0069     1
 UP BOUND     C0070     1
 UP BOUND     C0071     1
 UP BOUND     C0072     1
 UP BOUND     C0073     1
 UP BOUND     C0074     1
 UP BOUND     C0075     1
 UP BOUND     C0076     1
 UP BOUND     C0077     1
 UP BOUND     C0078     1
 UP BOUND     C0079     1
 UP BOUND     C0080     1
 UP BOUND     C0081     1
 UP BOUND     C0082     1
 UP BOUND     C0083     1
 UP BOUND     C0084     1
 UP BOUND     C0085     1
 UP BOUND     C0086     1
 UP BOUND     C0087     1
 UP BOUND     C0088     1
 UP BOUND     C0089     1
 UP BOUND     C0090     1
 UP BOUND     C0091     1
 UP BOUND     C0092     1
 UP BOUND     C0093     1
 UP BOUND     C0094     1
 UP BOUND     C0095     1
 UP BOUND     C0096     1
 UP BOUND     C0097     1
 UP BOUND     C0098     1
 UP BOUND     C0099     1
 UP BOUND     C0100     1
ENDATA
